\* problem1 *\
Maximize
OBJ: - 20 N_1 - 40 N_10 - 40 N_11 - 40 N_12 - 60 N_13 - 60 N_14 - 80 N_15
 - 20 N_2 - 20 N_3 - 20 N_4 - 20 N_5 - 20 N_6 - 20 N_7 - 20 N_8 - 40 N_9
 + 10 P_1 + 20 P_10 + 20 P_11 + 20 P_12 + 30 P_13 + 30 P_14 + 40 P_15 + 10 P_2
 + 10 P_3 + 10 P_4 + 10 P_5 + 10 P_6 + 10 P_7 + 10 P_8 + 20 P_9 + 40 X_(1,_1)
 + 20 X_(1,_2) + 20 X_(2,_1) + 40 X_(2,_2) + 60 X_(3,_1) + 50 X_(3,_2)
 + 80 X_(4,_1) + 20 X_(4,_2) + 50 X_(5,_1) + 30 X_(5,_2) + 40 X_(6,_1)
 + 30 X_(6,_2) + 70 X_(7,_1) + 20 X_(7,_2) + 60 X_(8,_1) + 20 X_(8,_2)
Subject To
_C1: X_(1,_1) <= 10000
_C10: X_(5,_2) <= 10000
_C100: 1000000 C_14 + 0.5 X_(14,_1) + 0.5 X_(14,_2) - X_(15,_2) >= 0
_C101: - 1000000 C_14 + 0.5 X_(14,_1) + 0.5 X_(14,_2) - X_(15,_2) <= 0
_C102: - 1000000 C_14 - X_(14,_1) + X_(15,_2) >= -1000000
_C103: 1000000 C_14 - X_(14,_1) + X_(15,_2) <= 1000000
_C11: X_(6,_1) <= 10000
_C12: X_(6,_2) <= 10000
_C13: X_(7,_1) <= 10000
_C14: X_(7,_2) <= 10000
_C15: X_(8,_1) <= 10000
_C16: X_(8,_2) <= 10000
_C17: C_1 + C_10 + C_11 + C_12 + C_13 + C_14 + C_15 + C_2 + C_3 + C_4 + C_5
 + C_6 + C_7 + C_8 + C_9 = 3
_C18: A_1 + N_1 - P_1 = 0
_C19: A_2 + N_2 - P_2 = 0
_C2: X_(1,_2) <= 10000
_C20: A_3 + N_3 - P_3 = 0
_C21: A_4 + N_4 - P_4 = 0
_C22: A_5 + N_5 - P_5 = 0
_C23: A_6 + N_6 - P_6 = 0
_C24: A_7 + N_7 - P_7 = 0
_C25: A_8 + N_8 - P_8 = 0
_C26: A_9 + N_9 - P_9 = 0
_C27: A_10 + N_10 - P_10 = 0
_C28: A_11 + N_11 - P_11 = 0
_C29: A_12 + N_12 - P_12 = 0
_C3: X_(2,_1) <= 10000
_C30: A_13 + N_13 - P_13 = 0
_C31: A_14 + N_14 - P_14 = 0
_C32: A_15 + N_15 - P_15 = 0
_C33: A_1 + X_(1,_1) + X_(1,_2) = 10000
_C34: A_2 + X_(2,_1) + X_(2,_2) = 10000
_C35: A_3 + X_(3,_1) + X_(3,_2) = 10000
_C36: A_4 + X_(4,_1) + X_(4,_2) = 10000
_C37: A_5 + X_(5,_1) + X_(5,_2) = 10000
_C38: A_6 + X_(6,_1) + X_(6,_2) = 10000
_C39: A_7 + X_(7,_1) + X_(7,_2) = 10000
_C4: X_(2,_2) <= 10000
_C40: A_8 + X_(8,_1) + X_(8,_2) = 10000
_C41: A_9 + X_(9,_1) + X_(9,_2) = 10000
_C42: A_10 + X_(10,_1) + X_(10,_2) = 10000
_C43: A_11 + X_(11,_1) + X_(11,_2) = 10000
_C44: A_12 + X_(12,_1) + X_(12,_2) = 10000
_C45: A_13 + X_(13,_1) + X_(13,_2) = 10000
_C46: A_14 + X_(14,_1) + X_(14,_2) = 10000
_C47: A_15 + X_(15,_1) + X_(15,_2) = 10000
_C48: 1000000 C_1 + 0.5 X_(1,_1) + 0.5 X_(1,_2) - X_(9,_1) >= 0
_C49: - 1000000 C_1 + 0.5 X_(1,_1) + 0.5 X_(1,_2) - X_(9,_1) <= 0
_C5: X_(3,_1) <= 10000
_C50: - 1000000 C_1 - X_(1,_1) + X_(9,_1) >= -1000000
_C51: 1000000 C_1 - X_(1,_1) + X_(9,_1) <= 1000000
_C52: 1000000 C_2 + 0.5 X_(2,_1) + 0.5 X_(2,_2) - X_(9,_2) >= 0
_C53: - 1000000 C_2 + 0.5 X_(2,_1) + 0.5 X_(2,_2) - X_(9,_2) <= 0
_C54: - 1000000 C_2 - X_(2,_1) + X_(9,_2) >= -1000000
_C55: 1000000 C_2 - X_(2,_1) + X_(9,_2) <= 1000000
_C56: 1000000 C_3 - X_(10,_1) + 0.5 X_(3,_1) + 0.5 X_(3,_2) >= 0
_C57: - 1000000 C_3 - X_(10,_1) + 0.5 X_(3,_1) + 0.5 X_(3,_2) <= 0
_C58: - 1000000 C_3 + X_(10,_1) - X_(3,_1) >= -1000000
_C59: 1000000 C_3 + X_(10,_1) - X_(3,_1) <= 1000000
_C6: X_(3,_2) <= 10000
_C60: 1000000 C_4 - X_(10,_2) + 0.5 X_(4,_1) + 0.5 X_(4,_2) >= 0
_C61: - 1000000 C_4 - X_(10,_2) + 0.5 X_(4,_1) + 0.5 X_(4,_2) <= 0
_C62: - 1000000 C_4 + X_(10,_2) - X_(4,_1) >= -1000000
_C63: 1000000 C_4 + X_(10,_2) - X_(4,_1) <= 1000000
_C64: 1000000 C_5 - X_(11,_1) + 0.5 X_(5,_1) + 0.5 X_(5,_2) >= 0
_C65: - 1000000 C_5 - X_(11,_1) + 0.5 X_(5,_1) + 0.5 X_(5,_2) <= 0
_C66: - 1000000 C_5 + X_(11,_1) - X_(5,_1) >= -1000000
_C67: 1000000 C_5 + X_(11,_1) - X_(5,_1) <= 1000000
_C68: 1000000 C_6 - X_(11,_2) + 0.5 X_(6,_1) + 0.5 X_(6,_2) >= 0
_C69: - 1000000 C_6 - X_(11,_2) + 0.5 X_(6,_1) + 0.5 X_(6,_2) <= 0
_C7: X_(4,_1) <= 10000
_C70: - 1000000 C_6 + X_(11,_2) - X_(6,_1) >= -1000000
_C71: 1000000 C_6 + X_(11,_2) - X_(6,_1) <= 1000000
_C72: 1000000 C_7 - X_(12,_1) + 0.5 X_(7,_1) + 0.5 X_(7,_2) >= 0
_C73: - 1000000 C_7 - X_(12,_1) + 0.5 X_(7,_1) + 0.5 X_(7,_2) <= 0
_C74: - 1000000 C_7 + X_(12,_1) - X_(7,_1) >= -1000000
_C75: 1000000 C_7 + X_(12,_1) - X_(7,_1) <= 1000000
_C76: 1000000 C_8 - X_(12,_2) + 0.5 X_(8,_1) + 0.5 X_(8,_2) >= 0
_C77: - 1000000 C_8 - X_(12,_2) + 0.5 X_(8,_1) + 0.5 X_(8,_2) <= 0
_C78: - 1000000 C_8 + X_(12,_2) - X_(8,_1) >= -1000000
_C79: 1000000 C_8 + X_(12,_2) - X_(8,_1) <= 1000000
_C8: X_(4,_2) <= 10000
_C80: 1000000 C_9 - X_(13,_1) + 0.5 X_(9,_1) + 0.5 X_(9,_2) >= 0
_C81: - 1000000 C_9 - X_(13,_1) + 0.5 X_(9,_1) + 0.5 X_(9,_2) <= 0
_C82: - 1000000 C_9 + X_(13,_1) - X_(9,_1) >= -1000000
_C83: 1000000 C_9 + X_(13,_1) - X_(9,_1) <= 1000000
_C84: 1000000 C_10 + 0.5 X_(10,_1) + 0.5 X_(10,_2) - X_(13,_2) >= 0
_C85: - 1000000 C_10 + 0.5 X_(10,_1) + 0.5 X_(10,_2) - X_(13,_2) <= 0
_C86: - 1000000 C_10 - X_(10,_1) + X_(13,_2) >= -1000000
_C87: 1000000 C_10 - X_(10,_1) + X_(13,_2) <= 1000000
_C88: 1000000 C_11 + 0.5 X_(11,_1) + 0.5 X_(11,_2) - X_(14,_1) >= 0
_C89: - 1000000 C_11 + 0.5 X_(11,_1) + 0.5 X_(11,_2) - X_(14,_1) <= 0
_C9: X_(5,_1) <= 10000
_C90: - 1000000 C_11 - X_(11,_1) + X_(14,_1) >= -1000000
_C91: 1000000 C_11 - X_(11,_1) + X_(14,_1) <= 1000000
_C92: 1000000 C_12 + 0.5 X_(12,_1) + 0.5 X_(12,_2) - X_(14,_2) >= 0
_C93: - 1000000 C_12 + 0.5 X_(12,_1) + 0.5 X_(12,_2) - X_(14,_2) <= 0
_C94: - 1000000 C_12 - X_(12,_1) + X_(14,_2) >= -1000000
_C95: 1000000 C_12 - X_(12,_1) + X_(14,_2) <= 1000000
_C96: 1000000 C_13 + 0.5 X_(13,_1) + 0.5 X_(13,_2) - X_(15,_1) >= 0
_C97: - 1000000 C_13 + 0.5 X_(13,_1) + 0.5 X_(13,_2) - X_(15,_1) <= 0
_C98: - 1000000 C_13 - X_(13,_1) + X_(15,_1) >= -1000000
_C99: 1000000 C_13 - X_(13,_1) + X_(15,_1) <= 1000000
Bounds
 A_1 free
 A_10 free
 A_11 free
 A_12 free
 A_13 free
 A_14 free
 A_15 free
 A_2 free
 A_3 free
 A_4 free
 A_5 free
 A_6 free
 A_7 free
 A_8 free
 A_9 free
 C_1 <= 1
 C_10 <= 1
 C_11 <= 1
 C_12 <= 1
 C_13 <= 1
 C_14 <= 1
 C_15 <= 1
 C_2 <= 1
 C_3 <= 1
 C_4 <= 1
 C_5 <= 1
 C_6 <= 1
 C_7 <= 1
 C_8 <= 1
 C_9 <= 1
End
